T = 3;
NumMustTakeOne = 1;
InitBal=5000;

Rate = 0.04;
Projects = {
  IBM_5500,         
  Sun_2000,            
  New_CFO,            
  Promote_SW_Reg,       
  Stock_repur          
};

MustTakeOne ={
IBM_5500,
Sun_2000
};

MinBal= [0,0,0];

SetupCost = [|
   4000, 4000, 4100|
   4500, 4500, 4500| 
   8000, 8000, 8000| 
   2000, 2000, 2000|
   3500, 5000, 3000|];
       
Reward =[|
  1000, 3000, 3000|
   1200, 3200, 3200|
   2000,2000,2000|
   4000, 4000, 4000|
   2000,2000,2000|];